(define-funs-rec
  ((u2
    ((x Int) (y Int) (z Int)) Int)
   (v2
    ((x Int) (y Int) (z Int)) Int))
  ((ite (<= x 0) y (v2 (- x 1) y z))
   (ite (<= x 0) z (- (u2 (- x 1) y z) (v2 (- x 1) y z)))))
(define-fun
  w2
  ((x Int)) Int (u2 x 1 2))
(define-funs-rec
  ((u1
    ((x Int) (y Int) (z Int)) Int)
   (v1
    ((x Int) (y Int) (z Int)) Int))
  ((ite (<= x 0) y (v1 (- x 1) y z))
   (ite (<= x 0) z (+ (u1 (- x 1) y z) (v1 (- x 1) y z)))))
(define-fun
  w1
  ((x Int) (y Int)) Int (u1 y 2 1))
(define-fun
  h2
  ((x Int)) Int x)
(define-fun
  h1
  ((x Int) (y Int)) Int y)
(define-fun
  g3
  ((x Int)) Int (mod x 2))
(define-fun
  g0
  ((x Int)) Int x)
(define-fun
  f3
  ((x Int)) Int (- 0 x))
(define-fun-rec
  u3
  ((x Int) (y Int)) Int (ite (<= x 0) y (f3 (u3 (- x 1) y))))
(define-fun
  v3
  ((x Int)) Int (u3 (g3 x) 1))
(define-fun
  fast
  ((x Int)) Int (* (- 1 (w2 x)) (v3 x)))
(define-fun
  f2
  ((x Int) (y Int)) Int y)
(define-fun
  f1
  ((x Int) (y Int)) Int y)
(define-fun
  f0
  ((x Int) (y Int)) Int (- (w1 x y) x))
(define-fun-rec
  u0
  ((x Int) (y Int)) Int (ite (<= x 0) y (f0 (u0 (- x 1) y) x)))
(define-fun
  v0
  ((x Int)) Int (u0 x 0))
(assert-not
  (forall ((c Int)) (or (not (>= c 0)) (= (v0 c) (fast c)))))
